Results/compas__short_enc.csv_1_FlowOCT_d_2_t_60_lambda_0.0_c_1.txt
Academic license - for non-commercial use only - expires 2021-04-23
Using license file /Users/jackbenson/gurobi.lic
Changed value of parameter Threads to 1
   Prev: 0  Min: 0  Max: 1024  Default: 0
Changed value of parameter TimeLimit to 60.0
   Prev: inf  Min: 0.0  Max: inf  Default: inf
Gurobi Optimizer version 9.1.1 build v9.1.1rc0 (mac64)
Thread count: 2 physical cores, 4 logical processors, using up to 1 threads
Optimize a model with 124 rows, 165 columns and 638 nonzeros
Model fingerprint: 0x476c1403
Variable types: 98 continuous, 67 integer (67 binary)
Coefficient statistics:
  Matrix range     [5e-01, 1e+00]
  Objective range  [1e+00, 1e+00]
  Bounds range     [1e+00, 1e+00]
  RHS range        [2e-02, 1e+00]
Found heuristic solution: objective -28.0000000
Presolve removed 54 rows and 91 columns
Presolve time: 0.00s
Presolved: 70 rows, 74 columns, 343 nonzeros
Variable types: 47 continuous, 27 integer (27 binary)

Root relaxation: objective -2.400000e+01, 38 iterations, 0.00 seconds

    Nodes    |    Current Node    |     Objective Bounds      |     Work
 Expl Unexpl |  Obj  Depth IntInf | Incumbent    BestBd   Gap | It/Node Time

     0     0  -24.00000    0    4  -28.00000  -24.00000  14.3%     -    0s
H    0     0                     -26.0000000  -24.00000  7.69%     -    0s
H    0     0                     -25.0000000  -24.00000  4.00%     -    0s
     0     0  -24.00000    0    6  -25.00000  -24.00000  4.00%     -    0s
     0     0  -24.00000    0    7  -25.00000  -24.00000  4.00%     -    0s
     0     0  -24.00000    0    7  -25.00000  -24.00000  4.00%     -    0s
     0     2  -24.00000    0    7  -25.00000  -24.00000  4.00%     -    0s
*   35     4               8     -24.0000000  -24.00000  0.00%   5.2    0s

Cutting planes:
  Gomory: 3
  MIR: 1

Explored 36 nodes (238 simplex iterations) in 0.03 seconds
Thread count was 1 (of 4 available processors)

Solution count 4: -24 -25 -26 -28 
No other solutions better than -24

Optimal solution found (tolerance 1.00e-04)
Best objective -2.400000000000e+01, best bound -2.400000000000e+01, gap 0.0000%



#########node  1
race_factor.2
#########node  2
two_year_recid.0
#########node  3
crime_factor.1
#########node  4
leaf 2
#########node  5
leaf 1
#########node  6
leaf 2
#########node  7
leaf 1


Total Solving Time 0.055512189865112305
obj value -24.0
Total Callback counter (Integer) 0
Total Successful Callback counter (Integer) 0
Total Callback Time (Integer) 0
Total Successful Callback Time (Integer) 0
obj value -24.0
train acc 1.0
test acc 1.0
calibration acc 1.0
Academic license - for non-commercial use only - expires 2021-04-23
Using license file /Users/jackbenson/gurobi.lic
Changed value of parameter Threads to 1
   Prev: 0  Min: 0  Max: 1024  Default: 0
Changed value of parameter TimeLimit to 60.0
   Prev: inf  Min: 0.0  Max: inf  Default: inf
Gurobi Optimizer version 9.1.1 build v9.1.1rc0 (mac64)
Thread count: 2 physical cores, 4 logical processors, using up to 1 threads
Optimize a model with 124 rows, 165 columns and 638 nonzeros
Model fingerprint: 0x476c1403
Variable types: 98 continuous, 67 integer (67 binary)
Coefficient statistics:
  Matrix range     [5e-01, 1e+00]
  Objective range  [1e+00, 1e+00]
  Bounds range     [1e+00, 1e+00]
  RHS range        [2e-02, 1e+00]
Found heuristic solution: objective -28.0000000
Presolve removed 54 rows and 91 columns
Presolve time: 0.00s
Presolved: 70 rows, 74 columns, 343 nonzeros
Variable types: 47 continuous, 27 integer (27 binary)

Root relaxation: objective -2.400000e+01, 38 iterations, 0.00 seconds

    Nodes    |    Current Node    |     Objective Bounds      |     Work
 Expl Unexpl |  Obj  Depth IntInf | Incumbent    BestBd   Gap | It/Node Time

     0     0  -24.00000    0    4  -28.00000  -24.00000  14.3%     -    0s
H    0     0                     -26.0000000  -24.00000  7.69%     -    0s
H    0     0                     -25.0000000  -24.00000  4.00%     -    0s
     0     0  -24.00000    0    6  -25.00000  -24.00000  4.00%     -    0s
     0     0  -24.00000    0    7  -25.00000  -24.00000  4.00%     -    0s
     0     0  -24.00000    0    7  -25.00000  -24.00000  4.00%     -    0s
     0     2  -24.00000    0    7  -25.00000  -24.00000  4.00%     -    0s
*   35     4               8     -24.0000000  -24.00000  0.00%   5.2    0s

Cutting planes:
  Gomory: 3
  MIR: 1

Explored 36 nodes (238 simplex iterations) in 0.02 seconds
Thread count was 1 (of 4 available processors)

Solution count 4: -24 -25 -26 -28 
No other solutions better than -24

Optimal solution found (tolerance 1.00e-04)
Best objective -2.400000000000e+01, best bound -2.400000000000e+01, gap 0.0000%



#########node  1
race_factor.2
#########node  2
two_year_recid.0
#########node  3
crime_factor.1
#########node  4
leaf 2
#########node  5
leaf 1
#########node  6
leaf 2
#########node  7
leaf 1


Total Solving Time 0.04221487045288086
obj value -24.0
Total Callback counter (Integer) 0
Total Successful Callback counter (Integer) 0
Total Callback Time (Integer) 0
Total Successful Callback Time (Integer) 0
obj value -24.0
train acc 1.0
test acc 1.0
calibration acc 1.0
Academic license - for non-commercial use only - expires 2021-04-23
Using license file /Users/jackbenson/gurobi.lic
Changed value of parameter Threads to 1
   Prev: 0  Min: 0  Max: 1024  Default: 0
Changed value of parameter TimeLimit to 60.0
   Prev: inf  Min: 0.0  Max: inf  Default: inf
Gurobi Optimizer version 9.1.1 build v9.1.1rc0 (mac64)
Thread count: 2 physical cores, 4 logical processors, using up to 1 threads
Optimize a model with 124 rows, 165 columns and 638 nonzeros
Model fingerprint: 0x476c1403
Variable types: 98 continuous, 67 integer (67 binary)
Coefficient statistics:
  Matrix range     [5e-01, 1e+00]
  Objective range  [1e+00, 1e+00]
  Bounds range     [1e+00, 1e+00]
  RHS range        [2e-02, 1e+00]
Found heuristic solution: objective -28.0000000
Presolve removed 54 rows and 91 columns
Presolve time: 0.00s
Presolved: 70 rows, 74 columns, 343 nonzeros
Variable types: 47 continuous, 27 integer (27 binary)

Root relaxation: objective -2.400000e+01, 38 iterations, 0.00 seconds

    Nodes    |    Current Node    |     Objective Bounds      |     Work
 Expl Unexpl |  Obj  Depth IntInf | Incumbent    BestBd   Gap | It/Node Time

     0     0  -24.00000    0    4  -28.00000  -24.00000  14.3%     -    0s
H    0     0                     -26.0000000  -24.00000  7.69%     -    0s
H    0     0                     -25.0000000  -24.00000  4.00%     -    0s
     0     0  -24.00000    0    6  -25.00000  -24.00000  4.00%     -    0s
     0     0  -24.00000    0    7  -25.00000  -24.00000  4.00%     -    0s
     0     0  -24.00000    0    7  -25.00000  -24.00000  4.00%     -    0s
     0     2  -24.00000    0    7  -25.00000  -24.00000  4.00%     -    0s
*   35     4               8     -24.0000000  -24.00000  0.00%   5.2    0s

Cutting planes:
  Gomory: 3
  MIR: 1

Explored 36 nodes (238 simplex iterations) in 0.02 seconds
Thread count was 1 (of 4 available processors)

Solution count 4: -24 -25 -26 -28 
No other solutions better than -24

Optimal solution found (tolerance 1.00e-04)
Best objective -2.400000000000e+01, best bound -2.400000000000e+01, gap 0.0000%



#########node  1
race_factor.2
#########node  2
two_year_recid.0
#########node  3
crime_factor.1
#########node  4
leaf 2
#########node  5
leaf 1
#########node  6
leaf 2
#########node  7
leaf 1


Total Solving Time 0.04975318908691406
obj value -24.0
Total Callback counter (Integer) 0
Total Successful Callback counter (Integer) 0
Total Callback Time (Integer) 0
Total Successful Callback Time (Integer) 0
obj value -24.0
train acc 1.0
test acc 1.0
calibration acc 1.0
Academic license - for non-commercial use only - expires 2021-04-23
Using license file /Users/jackbenson/gurobi.lic
Changed value of parameter Threads to 1
   Prev: 0  Min: 0  Max: 1024  Default: 0
Changed value of parameter TimeLimit to 60.0
   Prev: inf  Min: 0.0  Max: inf  Default: inf
Gurobi Optimizer version 9.1.1 build v9.1.1rc0 (mac64)
Thread count: 2 physical cores, 4 logical processors, using up to 1 threads
Optimize a model with 124 rows, 165 columns and 638 nonzeros
Model fingerprint: 0x476c1403
Variable types: 98 continuous, 67 integer (67 binary)
Coefficient statistics:
  Matrix range     [5e-01, 1e+00]
  Objective range  [1e+00, 1e+00]
  Bounds range     [1e+00, 1e+00]
  RHS range        [2e-02, 1e+00]
Found heuristic solution: objective -28.0000000
Presolve removed 54 rows and 91 columns
Presolve time: 0.00s
Presolved: 70 rows, 74 columns, 343 nonzeros
Variable types: 47 continuous, 27 integer (27 binary)

Root relaxation: objective -2.400000e+01, 38 iterations, 0.00 seconds

    Nodes    |    Current Node    |     Objective Bounds      |     Work
 Expl Unexpl |  Obj  Depth IntInf | Incumbent    BestBd   Gap | It/Node Time

     0     0  -24.00000    0    4  -28.00000  -24.00000  14.3%     -    0s
H    0     0                     -26.0000000  -24.00000  7.69%     -    0s
H    0     0                     -25.0000000  -24.00000  4.00%     -    0s
     0     0  -24.00000    0    6  -25.00000  -24.00000  4.00%     -    0s
     0     0  -24.00000    0    7  -25.00000  -24.00000  4.00%     -    0s
     0     0  -24.00000    0    7  -25.00000  -24.00000  4.00%     -    0s
     0     2  -24.00000    0    7  -25.00000  -24.00000  4.00%     -    0s
*   35     4               8     -24.0000000  -24.00000  0.00%   5.2    0s

Cutting planes:
  Gomory: 3
  MIR: 1

Explored 36 nodes (238 simplex iterations) in 0.03 seconds
Thread count was 1 (of 4 available processors)

Solution count 4: -24 -25 -26 -28 
No other solutions better than -24

Optimal solution found (tolerance 1.00e-04)
Best objective -2.400000000000e+01, best bound -2.400000000000e+01, gap 0.0000%



#########node  1
race_factor.2
#########node  2
two_year_recid.0
#########node  3
crime_factor.1
#########node  4
leaf 2
#########node  5
leaf 1
#########node  6
leaf 2
#########node  7
leaf 1


Total Solving Time 0.04836392402648926
obj value -24.0
Total Callback counter (Integer) 0
Total Successful Callback counter (Integer) 0
Total Callback Time (Integer) 0
Total Successful Callback Time (Integer) 0
obj value -24.0
train acc 1.0
test acc 1.0
calibration acc 1.0
Academic license - for non-commercial use only - expires 2021-04-23
Using license file /Users/jackbenson/gurobi.lic
Changed value of parameter Threads to 1
   Prev: 0  Min: 0  Max: 1024  Default: 0
Changed value of parameter TimeLimit to 60.0
   Prev: inf  Min: 0.0  Max: inf  Default: inf
Gurobi Optimizer version 9.1.1 build v9.1.1rc0 (mac64)
Thread count: 2 physical cores, 4 logical processors, using up to 1 threads
Optimize a model with 124 rows, 165 columns and 638 nonzeros
Model fingerprint: 0x476c1403
Variable types: 98 continuous, 67 integer (67 binary)
Coefficient statistics:
  Matrix range     [5e-01, 1e+00]
  Objective range  [1e+00, 1e+00]
  Bounds range     [1e+00, 1e+00]
  RHS range        [2e-02, 1e+00]
Found heuristic solution: objective -28.0000000
Presolve removed 54 rows and 91 columns
Presolve time: 0.00s
Presolved: 70 rows, 74 columns, 343 nonzeros
Variable types: 47 continuous, 27 integer (27 binary)

Root relaxation: objective -2.400000e+01, 38 iterations, 0.00 seconds

    Nodes    |    Current Node    |     Objective Bounds      |     Work
 Expl Unexpl |  Obj  Depth IntInf | Incumbent    BestBd   Gap | It/Node Time

     0     0  -24.00000    0    4  -28.00000  -24.00000  14.3%     -    0s
H    0     0                     -26.0000000  -24.00000  7.69%     -    0s
H    0     0                     -25.0000000  -24.00000  4.00%     -    0s
     0     0  -24.00000    0    6  -25.00000  -24.00000  4.00%     -    0s
     0     0  -24.00000    0    7  -25.00000  -24.00000  4.00%     -    0s
     0     0  -24.00000    0    7  -25.00000  -24.00000  4.00%     -    0s
     0     2  -24.00000    0    7  -25.00000  -24.00000  4.00%     -    0s
*   35     4               8     -24.0000000  -24.00000  0.00%   5.2    0s

Cutting planes:
  Gomory: 3
  MIR: 1

Explored 36 nodes (238 simplex iterations) in 0.02 seconds
Thread count was 1 (of 4 available processors)

Solution count 4: -24 -25 -26 -28 
No other solutions better than -24

Optimal solution found (tolerance 1.00e-04)
Best objective -2.400000000000e+01, best bound -2.400000000000e+01, gap 0.0000%



#########node  1
race_factor.2
#########node  2
two_year_recid.0
#########node  3
crime_factor.1
#########node  4
leaf 2
#########node  5
leaf 1
#########node  6
leaf 2
#########node  7
leaf 1


Total Solving Time 0.040242910385131836
obj value -24.0
Total Callback counter (Integer) 0
Total Successful Callback counter (Integer) 0
Total Callback Time (Integer) 0
Total Successful Callback Time (Integer) 0
obj value -24.0
train acc 1.0
test acc 1.0
calibration acc 1.0
No SP
Academic license - for non-commercial use only - expires 2021-04-23
Using license file /Users/jackbenson/gurobi.lic
Changed value of parameter Threads to 1
   Prev: 0  Min: 0  Max: 1024  Default: 0
Changed value of parameter TimeLimit to 60.0
   Prev: inf  Min: 0.0  Max: inf  Default: inf
Gurobi Optimizer version 9.1.1 build v9.1.1rc0 (mac64)
Thread count: 2 physical cores, 4 logical processors, using up to 1 threads
Optimize a model with 124 rows, 165 columns and 638 nonzeros
Model fingerprint: 0x476c1403
Variable types: 98 continuous, 67 integer (67 binary)
Coefficient statistics:
  Matrix range     [5e-01, 1e+00]
  Objective range  [1e+00, 1e+00]
  Bounds range     [1e+00, 1e+00]
  RHS range        [2e-02, 1e+00]
Found heuristic solution: objective -28.0000000
Presolve removed 54 rows and 91 columns
Presolve time: 0.00s
Presolved: 70 rows, 74 columns, 343 nonzeros
Variable types: 47 continuous, 27 integer (27 binary)

Root relaxation: objective -2.400000e+01, 38 iterations, 0.00 seconds

    Nodes    |    Current Node    |     Objective Bounds      |     Work
 Expl Unexpl |  Obj  Depth IntInf | Incumbent    BestBd   Gap | It/Node Time

     0     0  -24.00000    0    4  -28.00000  -24.00000  14.3%     -    0s
H    0     0                     -26.0000000  -24.00000  7.69%     -    0s
H    0     0                     -25.0000000  -24.00000  4.00%     -    0s
     0     0  -24.00000    0    6  -25.00000  -24.00000  4.00%     -    0s
     0     0  -24.00000    0    7  -25.00000  -24.00000  4.00%     -    0s
     0     0  -24.00000    0    7  -25.00000  -24.00000  4.00%     -    0s
     0     2  -24.00000    0    7  -25.00000  -24.00000  4.00%     -    0s
*   35     4               8     -24.0000000  -24.00000  0.00%   5.2    0s

Cutting planes:
  Gomory: 3
  MIR: 1

Explored 36 nodes (238 simplex iterations) in 0.03 seconds
Thread count was 1 (of 4 available processors)

Solution count 4: -24 -25 -26 -28 
No other solutions better than -24

Optimal solution found (tolerance 1.00e-04)
Best objective -2.400000000000e+01, best bound -2.400000000000e+01, gap 0.0000%



#########node  1
race_factor.2
#########node  2
two_year_recid.0
#########node  3
crime_factor.1
#########node  4
leaf 2
#########node  5
leaf 1
#########node  6
leaf 2
#########node  7
leaf 1


Total Solving Time 0.07130718231201172
obj value -24.0
Total Callback counter (Integer) 0
Total Successful Callback counter (Integer) 0
Total Callback Time (Integer) 0
Total Successful Callback Time (Integer) 0
obj value -24.0
train acc 1.0
test acc 1.0
calibration acc 1.0
Academic license - for non-commercial use only - expires 2021-04-23
Using license file /Users/jackbenson/gurobi.lic
Changed value of parameter Threads to 1
   Prev: 0  Min: 0  Max: 1024  Default: 0
Changed value of parameter TimeLimit to 60.0
   Prev: inf  Min: 0.0  Max: inf  Default: inf
Gurobi Optimizer version 9.1.1 build v9.1.1rc0 (mac64)
Thread count: 2 physical cores, 4 logical processors, using up to 1 threads
Optimize a model with 124 rows, 165 columns and 638 nonzeros
Model fingerprint: 0x476c1403
Variable types: 98 continuous, 67 integer (67 binary)
Coefficient statistics:
  Matrix range     [5e-01, 1e+00]
  Objective range  [1e+00, 1e+00]
  Bounds range     [1e+00, 1e+00]
  RHS range        [2e-02, 1e+00]
Found heuristic solution: objective -28.0000000
Presolve removed 54 rows and 91 columns
Presolve time: 0.00s
Presolved: 70 rows, 74 columns, 343 nonzeros
Variable types: 47 continuous, 27 integer (27 binary)

Root relaxation: objective -2.400000e+01, 38 iterations, 0.00 seconds

    Nodes    |    Current Node    |     Objective Bounds      |     Work
 Expl Unexpl |  Obj  Depth IntInf | Incumbent    BestBd   Gap | It/Node Time

     0     0  -24.00000    0    4  -28.00000  -24.00000  14.3%     -    0s
H    0     0                     -26.0000000  -24.00000  7.69%     -    0s
H    0     0                     -25.0000000  -24.00000  4.00%     -    0s
     0     0  -24.00000    0    6  -25.00000  -24.00000  4.00%     -    0s
     0     0  -24.00000    0    7  -25.00000  -24.00000  4.00%     -    0s
     0     0  -24.00000    0    7  -25.00000  -24.00000  4.00%     -    0s
     0     2  -24.00000    0    7  -25.00000  -24.00000  4.00%     -    0s
*   35     4               8     -24.0000000  -24.00000  0.00%   5.2    0s

Cutting planes:
  Gomory: 3
  MIR: 1

Explored 36 nodes (238 simplex iterations) in 0.03 seconds
Thread count was 1 (of 4 available processors)

Solution count 4: -24 -25 -26 -28 
No other solutions better than -24

Optimal solution found (tolerance 1.00e-04)
Best objective -2.400000000000e+01, best bound -2.400000000000e+01, gap 0.0000%



#########node  1
race_factor.2
#########node  2
two_year_recid.0
#########node  3
crime_factor.1
#########node  4
leaf 2
#########node  5
leaf 1
#########node  6
leaf 2
#########node  7
leaf 1


Total Solving Time 0.05404305458068848
obj value -24.0
Total Callback counter (Integer) 0
Total Successful Callback counter (Integer) 0
Total Callback Time (Integer) 0
Total Successful Callback Time (Integer) 0
obj value -24.0
train acc 1.0
test acc 1.0
calibration acc 1.0
2 & 1 has train data SP: 0.0
2 & 1 has train pred SP: 0.0
2 & 1 has test data SP: 0
2 & 1 has test pred SP: 0
2 & 1 has calibration data SP: 0
2 & 1 has calibration pred SP: 0
1&2
0.0
